CMD:
./solvers/bin/cadical --plain --no-reduce -t 1600 ./data/cnfs//beemadd4b1/beemadd4b1.98.cnf

c --- [ banner ] -------------------------------------------------------------
c 
c CaDiCaL SAT Solver
c Copyright (c) 2016-2024
c A. Biere, M. Fleury, N. Froleyks, K. Fazekas, F. Pollitt, T. Faller
c JKU Linz, University of Freiburg, TU Wien
c 
c Version 2.1.3 5296d3d2a9bf48c154ab2acb5e44625776d821bf
c g++ (Gentoo 12.3.1_p20230526 p2) 12.3.1 20230526 -Wall -Wextra -O3 -DNDEBUG
c Sat Aug 9 07:26:21 PDT 2025 Linux cedar2.int.cedar.computecanada.ca 5.14.0-362.24.2.el9_3.x86_64 x86_64
c 
c --- [ limit ] --------------------------------------------------------------
c 
c setting time limit to 1600 seconds real time (due to '-t 1600')
c 
c --- [ parsing input ] ------------------------------------------------------
c 
c reading DIMACS file from './data/cnfs//beemadd4b1/beemadd4b1.98.cnf'
c opening file to read './data/cnfs//beemadd4b1/beemadd4b1.98.cnf'
c found 'p cnf 92522 259337' header
c parsed 259337 clauses in 0.05 seconds process time
c 
c --- [ options ] ------------------------------------------------------------
c 
c   --compact=false                (different from default 'true')
c   --decompose=false              (different from default 'true')
c   --deduplicate=false            (different from default 'true')
c   --elim=false                   (different from default 'true')
c   --probe=false                  (different from default 'true')
c   --reduce=false                 (different from default 'true')
c   --subsume=false                (different from default 'true')
c   --ternary=false                (different from default 'true')
c   --transred=false               (different from default 'true')
c   --vivify=false                 (different from default 'true')
c 
c --- [ solving ] ------------------------------------------------------------
c 
c time measured in process time since initialization
c 
c  seconds  reductions  redundant  irredundant
c         MB    restarts       trail       variables
c          level   conflicts       glue         remaining
c 
c *  0.05 45  0 0   0    0    0  0% 0 258461 64458 70%
c {  0.06 45  0 0   0    0    0  0% 0 258461 64458 70%
c i  0.06 45  1 0   0    1    0 32% 0 258461 64456 70%
c i  0.07 45 316 0   3   60   55 51% 8 258461 64445 70%
c }  0.13 46 209 0  48 1001  956 55% 6 258461 64439 70%
c [  0.13 46  0 0  48 1001  956  0% 0 258461 64439 70%
c O  0.13 46 32 0  48 1002  957 31% 3 258461 64439 70%
c i  0.15 46 14 0  48 1388 1235 32% 5 258461 64428 70%
c ]  0.21 46 48 0  49 3003 2769 39% 5 258461 64428 70%
c {  0.21 46 209 0  49 3003 2769 55% 6 258461 64428 70%
c F  0.21 46 209 0  50 3004 2770 55% 6 258461 64428 70%
c i  0.24 47 172 0  86 3590 3283 51% 5 258461 64427 70%
c i  0.29 48 137 0 118 4620 4243 48% 5 258461 64426 70%
c i  0.29 48 136 0 118 4644 4266 48% 5 258461 64425 70%
c i  0.30 48 136 0 118 4696 4313 48% 5 258461 64424 70%
c i  0.30 48 136 0 118 4698 4314 48% 5 258461 64423 70%
c i  0.30 48 136 0 118 4713 4328 48% 5 258461 64422 70%
c i  0.33 49 116 0 144 5883 5419 46% 5 258461 64421 70%
c i  0.33 49 116 0 144 5935 5456 46% 5 258461 64418 70%
c #  0.34 49 116 0 144 6008 5525 46% 5 258461 64418 70%
c 
c  seconds   reductions  redundant  irredundant
c         MB     restarts       trail       variables
c           level   conflicts       glue         remaining
c 
c i  0.35 49 110 0 151 6304 5796 46% 5 258461 64417 70%
c i  0.35 49 108 0 158 6420 5905 45% 5 258461 64416 70%
c i  0.35 49 108 0 158 6421 5905 45% 5 258461 64415 70%
c i  0.35 49 108 0 158 6424 5906 45% 5 258461 64414 70%
c i  0.37 49 105 0 165 6655 6118 45% 5 258461 64413 70%
c i  0.37 49 105 0 165 6660 6122 45% 5 258461 64412 70%
c i  0.37 49 105 0 165 6662 6123 45% 5 258461 64411 70%
c }  0.39 49 101 0 192 7005 6447 45% 5 258461 64411 70%
c [  0.39 49 48 0 192 7005 6447 39% 5 258461 64411 70%
c I  0.56 50 39 0 194 10009 9259 40% 6 258461 64411 70%
c i  0.63 50 46 0 195 10998 10184 41% 6 258461 64410 70%
c i  0.66 50 49 0 196 11416 10579 41% 7 258461 64409 70%
c i  0.76 50 57 0 196 13003 12052 41% 7 258461 64408 70%
c ]  0.96 51 61 0 197 15007 13984 41% 9 258461 64408 70%
c {  0.96 51 101 0 197 15007 13984 45% 5 258461 64408 70%
c B  0.96 51 101 0 197 15010 13987 45% 5 258461 64408 70%
c i  1.02 51 90 0 261 16081 14966 44% 4 258461 64407 70%
c i  1.15 52 78 0 410 18200 16967 43% 4 258461 64406 70%
c i  1.16 52 77 0 429 18354 17111 43% 4 258461 64405 70%
c i  1.19 52 75 0 472 19029 17746 43% 4 258461 64404 70%
c 
c  seconds  reductions    redundant  irredundant
c         MB    restarts         trail       variables
c          level    conflicts        glue         remaining
c 
c i  1.20 52 74 0 474 19116 17825 42% 4 258461 64403 70%
c i  1.21 52 73 0 489 19390 18074 42% 4 258461 64402 70%
c i  1.26 52 71 0 516 20438 19060 43% 4 258461 64401 70%
c W  1.38 53 70 0 545 21011 19515 43% 4 187675 64401 70%
... skipped 1005 lines ...
c i 1064.81 823 103 0 139373 2140175 2012141 55% 17 178059 61188 66%
c B 1069.64 828 101 0 139373 2145142 2016983 55% 17 178059 61188 66%
c i 1073.54 832 110 0 139379 2153048 2024603 56% 17 178059 61187 66%
c W 1105.59 958 161 0 139390 2211143 2079677 66% 18 177896 61187 66%
c i 1106.14 958 160 0 139390 2212380 2080850 65% 17 177896 61186 66%
c i 1121.30 958 144 0 139391 2233278 2101120 62% 17 177896 61182 66%
c i 1139.98 958 134 0 139391 2248706 2116177 61% 17 177896 61181 66%
c i 1155.20 958 127 0 139391 2261266 2128442 59% 17 177896 61180 66%
c i 1174.52 958 121 0 139391 2275387 2142243 58% 18 177896 61179 66%
c O 1177.93 958 120 0 139391 2278145 2144947 58% 18 177896 61179 66%
c i 1198.32 958 107 0 139392 2306225 2172121 58% 16 177896 61178 66%
c 
c   seconds     reductions          redundant    irredundant
c            MB      restarts               trail        variables
c              level        conflicts           glue          remaining
c 
c i 1199.84 958 106 0 139392 2310162 2175883 58% 16 177896 61174 66%
c B 1217.27 959 100 0 139392 2346147 2210491 57% 14 177896 61174 66%
c i 1227.66 960 105 0 139392 2365471 2228760 58% 14 177896 61173 66%
c W 1259.66 1050 93 0 139392 2415149 2275964 57% 13 177852 61173 66%
c i 1259.71 1050 93 0 139392 2415235 2276046 57% 13 177852 61172 66%
c i 1260.43 1050 92 0 139392 2416807 2277567 57% 13 177852 61171 66%
c i 1296.59 1050 85 0 139414 2468650 2327115 55% 16 177852 61153 66%
c i 1303.68 1050 85 0 139420 2478700 2336799 55% 16 177852 61149 66%
c I 1306.01 1050 86 0 139422 2485152 2342995 54% 16 177852 61149 66%
c i 1318.12 1050 83 0 139424 2509770 2366769 54% 16 177852 61144 66%
c i 1330.74 1050 84 0 139435 2527885 2384260 54% 15 177852 61143 66%
c B 1354.47 1050 90 0 139447 2556153 2411951 55% 15 177852 61143 66%
c i 1356.43 1050 91 0 139450 2560950 2416616 55% 14 177852 61131 66%
c i 1377.46 1050 81 0 139455 2604974 2458947 51% 15 177852 61130 66%
c W 1389.80 1140 98 0 139458 2628154 2481525 52% 16 177714 61130 66%
c i 1406.60 1140 124 0 139470 2655043 2507387 56% 17 177714 61129 66%
c i 1414.45 1140 124 0 139477 2668055 2519501 56% 17 177714 61128 66%
c O 1434.52 1142 136 0 139486 2701156 2551492 60% 17 177714 61128 66%
c B 1494.72 1142 84 0 139517 2775159 2608421 52% 22 177714 61128 66%
c i 1507.37 1142 79 0 139518 2794843 2626929 52% 21 177714 61127 66%
c 
c   seconds     reductions          redundant    irredundant
c            MB      restarts               trail        variables
c              level        conflicts           glue          remaining
c 
c W 1559.33 1219 74 0 139519 2850161 2674062 52% 26 177705 61127 66%
c i 1584.02 1219 72 0 139519 2884875 2704222 53% 25 177705 61126 66%
c i 1584.67 1219 72 0 139519 2886154 2705446 53% 25 177705 61125 66%
c ] 1591.40 1219 75 0 139524 2895618 2713833 54% 24 177705 61125 66%
c ? 1591.40 1219 75 0 139524 2895618 2713833 54% 24 177705 61125 66%
c 
c --- [ result ] -------------------------------------------------------------
c 
c UNKNOWN
c 
c --- [ run-time profiling ] -------------------------------------------------
c 
c process time taken by individual solving procedures
c (percentage relative to process time for solving)
c 
c      1591.35  100.00% search
c       861.58   54.14% unstable
c       721.80   45.36% stable
c         7.96    0.50% walk
c         0.05    0.00% parse
c         0.01    0.00% lucky
c         0.00    0.00% simplify
c   =================================
c      1591.35  100.00% solve
c 
c last line shows process time for solving
c (percentage relative to total process time)
c 
c --- [ statistics ] ---------------------------------------------------------
c 
c chronological:            500446        17.28 %  of conflicts
c conflicts:               2895618      1819.60    per second
c decisions:               8922063      5606.61    per second
c fixed:                     31397        33.93 %  of all variables
c learned:                 2837021        97.98 %  per conflict
c learned_lits:          350671473       100.00 %  learned literals
c minimized:                     0         0.00 %  learned literals
c shrunken:               39733096        11.33 %  learned literals
c minishrunken:          118911616        33.91 %  learned literals
c otfs:                       7316         0.25 %  of conflict
c propagations:         3507608115         2.20 M  per second
c rephased:                     75     38608.24    interval
c restarts:                 139524        20.75    interval
c stabilizing:                   6        52.86 %  of conflicts
c subsumed:                 115102         3.72 %  of all clauses
c strengthened:               7234         0.23 %  of all clauses
c walked:                       24    120650.75    interval
c 
c seconds are measured in process time for solving
c 
c --- [ resources ] ----------------------------------------------------------
c 
c total process time since initialization:      1591.40    seconds
c total real time since initialization:         1600.01    seconds
c maximum resident set size of process:         1897.97    MB
c 
c --- [ shutting down ] ------------------------------------------------------
c 
c exit 0
